
Gurobi 11.0.1 (win64, Python) logging started Thu May  9 19:42:17 2024

Set parameter Username
Set parameter LogFile to value "gurobi.log"
Academic license - for non-commercial use only - expires 2025-04-29
